CMD:
./solvers/bin/cadical --plain --no-reduce -t 1600 ./data/cnfs//picorv32_mutAY_nomem-p4/picorv32_mutAY_nomem-p4.54.cnf

c --- [ banner ] -------------------------------------------------------------
c 
c CaDiCaL SAT Solver
c Copyright (c) 2016-2024
c A. Biere, M. Fleury, N. Froleyks, K. Fazekas, F. Pollitt, T. Faller
c JKU Linz, University of Freiburg, TU Wien
c 
c Version 2.1.3 5296d3d2a9bf48c154ab2acb5e44625776d821bf
c g++ (Gentoo 12.3.1_p20230526 p2) 12.3.1 20230526 -Wall -Wextra -O3 -DNDEBUG
c Sat Aug 9 07:26:21 PDT 2025 Linux cedar2.int.cedar.computecanada.ca 5.14.0-362.24.2.el9_3.x86_64 x86_64
c 
c --- [ limit ] --------------------------------------------------------------
c 
c setting time limit to 1600 seconds real time (due to '-t 1600')
c 
c --- [ parsing input ] ------------------------------------------------------
c 
c reading DIMACS file from './data/cnfs//picorv32_mutAY_nomem-p4/picorv32_mutAY_nomem-p4.54.cnf'
c opening file to read './data/cnfs//picorv32_mutAY_nomem-p4/picorv32_mutAY_nomem-p4.54.cnf'
c found 'p cnf 2683888 7908739' header
c parsed 7908739 clauses in 1.28 seconds process time
c 
c --- [ options ] ------------------------------------------------------------
c 
c   --compact=false                (different from default 'true')
c   --decompose=false              (different from default 'true')
c   --deduplicate=false            (different from default 'true')
c   --elim=false                   (different from default 'true')
c   --probe=false                  (different from default 'true')
c   --reduce=false                 (different from default 'true')
c   --subsume=false                (different from default 'true')
c   --ternary=false                (different from default 'true')
c   --transred=false               (different from default 'true')
c   --vivify=false                 (different from default 'true')
c 
c --- [ solving ] ------------------------------------------------------------
c 
c time measured in process time since initialization
c 
c  seconds    reductions  redundant   irredundant
c          MB     restarts       trail         variables
c            level   conflicts       glue            remaining
c 
c *  1.28 1208  0 0   0    0    0  0% 0 7669209 2521083 94%
c {  1.60 1240  0 0   0    0    0  0% 0 7669209 2521083 94%
c i  1.96 1242 98 0  30  579  517  9% 3 7669209 2520916 94%
c i  1.97 1242 98 0  30  581  518  9% 3 7669209 2495827 93%
c i  1.98 1242 93 0  30  621  549  9% 3 7669209 2495738 93%
c i  1.99 1242 85 0  32  683  607  9% 3 7669209 2495027 93%
c i  1.99 1242 85 0  32  684  607  9% 3 7669209 2495021 93%
c i  1.99 1242 85 0  32  686  608  9% 3 7669209 2495020 93%
c i  1.99 1242 85 0  32  687  608  9% 3 7669209 2495017 93%
c i  1.99 1242 85 0  32  689  608  9% 3 7669209 2495014 93%
c i  1.99 1242 85 0  32  690  608  9% 3 7669209 2495010 93%
c i  1.99 1242 84 0  32  691  608  9% 3 7669209 2495009 93%
c i  1.99 1242 84 0  32  692  608  9% 3 7669209 2495008 93%
c i  1.99 1242 84 0  32  693  608  9% 3 7669209 2495007 93%
c i  1.99 1242 84 0  32  695  609  9% 3 7669209 2495006 93%
c i  2.01 1242 81 0  33  722  633  9% 3 7669209 2494998 93%
c i  2.19 1243 84 0  33  768  675 10% 3 7669209 2494913 93%
c }  2.35 1243 80 0  44 1000  892 11% 3 7669209 2494844 93%
c [  2.35 1243  0 0  44 1000  892  0% 0 7669209 2494844 93%
c O  2.46 1243 3994 0  44 1002  894 14% 2 7669209 2494844 93%
c 
c  seconds       reductions  redundant    irredundant
c          MB        restarts       trail          variables
c              level    conflicts       glue             remaining
c 
c i  3.94 1245 39441 0  44 1752 1588 94% 11 7669209 2494690 93%
c i  4.82 1245 36842 0  45 2163 1967 88% 15 7669209 2494689 93%
c i  5.84 1246 32687 0  45 2355 2153 81% 13 7669209 2494688 93%
c i  6.10 1247 29978 0  45 2693 2444 77% 12 7669209 2494687 93%
c i  6.23 1247 28060 0  45 2815 2556 73% 11 7669209 2494686 93%
c i  6.25 1247 27687 0  45 2841 2579 73% 11 7669209 2494685 93%
c i  6.28 1247 27382 0  45 2863 2599 72% 11 7669209 2494684 93%
c i  6.31 1247 26973 0  45 2892 2624 72% 11 7669209 2494683 93%
c ]  6.70 1247 25911 0  45 3000 2716 70% 11 7669209 2494683 93%
c {  6.70 1247 80 0  45 3000 2716 11% 3 7669209 2494683 93%
c F  6.75 1247 104 0  46 3003 2719 11% 3 7669209 2494683 93%
c i  6.78 1248 100 0  47 3054 2768 11% 3 7669209 2494682 93%
c i  6.79 1248 100 0  47 3055 2768 11% 3 7669209 2494681 93%
c i  6.86 1248 107 0  50 3160 2864 11% 3 7669209 2494680 93%
c i  6.92 1248 110 0  52 3271 2969 11% 3 7669209 2494678 93%
c i  6.96 1248 107 0  53 3348 3040 11% 3 7669209 2494675 93%
c i  6.96 1248 107 0  53 3349 3040 11% 3 7669209 2494674 93%
c i  6.96 1248 105 0  53 3385 3072 11% 3 7669209 2494673 93%
c i  6.97 1248 105 0  53 3395 3080 11% 3 7669209 2494374 93%
c i  6.98 1248 102 0  53 3441 3118 10% 3 7669209 2494372 93%
c 
c  seconds     reductions  redundant   irredundant
c          MB      restarts       trail         variables
c             level   conflicts       glue            remaining
c 
c i  7.01 1248 102 0  53 3450 3126 10% 3 7669209 2494323 93%
c i  7.01 1248 102 0  53 3451 3126 10% 3 7669209 2494274 93%
c i  7.01 1248 102 0  53 3465 3137 10% 3 7669209 2494266 93%
c i  7.04 1248 102 0  53 3508 3177 11% 3 7669209 2494265 93%
... skipped 306730 lines ...
v -2683488 -2683489 2683490 -2683491 -2683492 -2683493 -2683494 -2683495
v -2683496 -2683497 -2683498 -2683499 -2683500 -2683501 -2683502 -2683503
v 2683504 -2683505 -2683506 -2683507 -2683508 2683509 -2683510 -2683511
v -2683512 -2683513 2683514 -2683515 -2683516 -2683517 -2683518 -2683519
v 2683520 -2683521 -2683522 -2683523 2683524 -2683525 -2683526 2683527
v -2683528 -2683529 2683530 -2683531 -2683532 -2683533 -2683534 2683535
v -2683536 -2683537 -2683538 2683539 -2683540 -2683541 -2683542 -2683543
v -2683544 -2683545 2683546 -2683547 2683548 -2683549 -2683550 -2683551
v -2683552 2683553 -2683554 -2683555 2683556 -2683557 -2683558 -2683559
v 2683560 -2683561 -2683562 -2683563 -2683564 -2683565 -2683566 2683567
v -2683568 -2683569 -2683570 -2683571 -2683572 -2683573 2683574 -2683575
v 2683576 -2683577 -2683578 -2683579 -2683580 2683581 2683582 2683583 -2683584
v -2683585 -2683586 -2683587 -2683588 -2683589 2683590 -2683591 -2683592
v -2683593 2683594 -2683595 -2683596 -2683597 -2683598 2683599 -2683600
v -2683601 2683602 -2683603 -2683604 2683605 -2683606 -2683607 2683608
v -2683609 -2683610 2683611 -2683612 -2683613 2683614 -2683615 -2683616
v 2683617 -2683618 -2683619 2683620 -2683621 -2683622 2683623 -2683624
v -2683625 2683626 -2683627 -2683628 2683629 -2683630 -2683631 2683632
v -2683633 -2683634 2683635 -2683636 -2683637 2683638 -2683639 -2683640
v 2683641 -2683642 -2683643 2683644 -2683645 -2683646 2683647 -2683648
v -2683649 2683650 -2683651 -2683652 2683653 -2683654 -2683655 2683656
v -2683657 -2683658 2683659 -2683660 -2683661 2683662 -2683663 -2683664
v 2683665 -2683666 -2683667 2683668 -2683669 -2683670 2683671 -2683672
v -2683673 2683674 -2683675 -2683676 2683677 -2683678 -2683679 2683680
v -2683681 -2683682 2683683 -2683684 -2683685 2683686 -2683687 -2683688
v -2683689 2683690 -2683691 -2683692 -2683693 2683694 -2683695 2683696
v -2683697 -2683698 -2683699 -2683700 2683701 -2683702 2683703 -2683704
v 2683705 -2683706 -2683707 -2683708 -2683709 2683710 2683711 -2683712
v -2683713 -2683714 2683715 -2683716 -2683717 -2683718 -2683719 2683720
v -2683721 -2683722 2683723 -2683724 -2683725 2683726 -2683727 -2683728
v 2683729 -2683730 -2683731 2683732 -2683733 -2683734 2683735 -2683736
v -2683737 2683738 -2683739 -2683740 2683741 -2683742 -2683743 2683744
v -2683745 -2683746 2683747 -2683748 -2683749 2683750 -2683751 -2683752
v 2683753 -2683754 -2683755 2683756 -2683757 -2683758 2683759 -2683760
v -2683761 2683762 -2683763 -2683764 2683765 -2683766 -2683767 2683768
v -2683769 -2683770 2683771 -2683772 -2683773 2683774 -2683775 -2683776
v 2683777 -2683778 -2683779 2683780 -2683781 -2683782 2683783 -2683784
v -2683785 2683786 -2683787 -2683788 2683789 -2683790 -2683791 2683792
v -2683793 -2683794 2683795 -2683796 -2683797 2683798 -2683799 -2683800
v 2683801 -2683802 -2683803 2683804 -2683805 -2683806 2683807 -2683808
v -2683809 2683810 -2683811 -2683812 2683813 -2683814 -2683815 -2683816
v -2683817 2683818 -2683819 -2683820 -2683821 -2683822 2683823 2683824 2683825
v 2683826 -2683827 -2683828 -2683829 2683830 -2683831 -2683832 2683833
v -2683834 -2683835 2683836 2683837 -2683838 2683839 -2683840 2683841 -2683842
v -2683843 2683844 -2683845 -2683846 2683847 -2683848 -2683849 -2683850
v 2683851 -2683852 -2683853 2683854 -2683855 -2683856 -2683857 2683858
v -2683859 2683860 -2683861 -2683862 -2683863 2683864 -2683865 -2683866
v -2683867 -2683868 2683869 -2683870 -2683871 -2683872 -2683873 2683874
v -2683875 -2683876 -2683877 -2683878 -2683879 2683880 -2683881 -2683882
v -2683883 -2683884 2683885 -2683886 2683887 -2683888 0
c 
c --- [ run-time profiling ] -------------------------------------------------
c 
c process time taken by individual solving procedures
c (percentage relative to process time for solving)
c 
c       100.83  100.00% search
c        71.68   71.09% stable
c        24.67   24.47% unstable
c         4.16    4.12% walk
c         1.28    1.27% parse
c         0.32    0.32% lucky
c         0.00    0.00% simplify
c   =================================
c       100.83   98.61% solve
c 
c last line shows process time for solving
c (percentage relative to total process time)
c 
c --- [ statistics ] ---------------------------------------------------------
c 
c chronological:             23792        47.64 %  of conflicts
c conflicts:                 49945       495.34    per second
c decisions:                518049      5137.84    per second
c fixed:                    217761         8.11 %  of all variables
c learned:                   46298        92.70 %  per conflict
c learned_lits:            8159823       100.00 %  learned literals
c minimized:                     0         0.00 %  learned literals
c shrunken:                 407103         4.99 %  learned literals
c minishrunken:             774641         9.49 %  learned literals
c otfs:                        336         0.67 %  of conflict
c propagations:         1233776393        12.24 M  per second
c rephased:                      9      5549.44    interval
c restarts:                   2044        24.43    interval
c stabilizing:                   3        57.95 %  of conflicts
c subsumed:                   1644         0.02 %  of all clauses
c strengthened:                329         0.00 %  of all clauses
c walked:                        2     24972.50    interval
c 
c seconds are measured in process time for solving
c 
c --- [ resources ] ----------------------------------------------------------
c 
c total process time since initialization:       102.26    seconds
c total real time since initialization:          102.85    seconds
c maximum resident set size of process:         1517.79    MB
c 
c --- [ shutting down ] ------------------------------------------------------
c 
c exit 10
